p cnf 91 377
7 8 9 -47 -48 55 0
7 8 9 -47 55 64 0
7 9 45 46 -47 64 0
12 13 -31 -73 78 -79 0
1 7 42 46 60 0
2 24 -32 56 59 0
2 24 -32 56 -62 0
3 4 23 32 -91 0
-3 -23 -51 67 91 0
-3 50 67 68 89 0
4 19 51 -85 -91 0
9 40 -43 46 -87 0
10 20 21 -77 88 0
10 20 -72 -77 88 0
10 26 -27 -33 -34 0
11 12 26 -28 -31 0
12 -14 58 -73 79 0
-17 -18 -19 -39 -40 0
19 23 27 32 56 0
21 22 70 -77 88 0
29 -30 -31 58 -73 0
3 23 -32 56 59 0
7 8 9 -48 55 0
-8 42 46 -60 -87 0
1 46 83 88 0
1 -69 83 88 0
-2 -5 -6 61 0
-2 -5 -6 -65 0
3 4 32 -91 0
3 -50 51 -91 0
-3 4 51 67 0
-3 50 68 -89 0
-3 -51 -68 -89 0
4 -61 78 84 0
-4 52 -63 78 0
-5 -65 74 -82 0
-6 37 62 82 0
-8 -42 60 -83 0
10 11 12 26 0
10 12 -19 -27 0
10 21 69 -77 0
10 21 -70 88 0
10 26 -27 -33 0
11 -14 -76 -80 0
-13 -50 68 -91 0
-13 -85 90 -91 0
-14 -15 57 58 0
15 -29 30 57 0
17 -44 -72 -77 0
-17 22 71 -72 0
-18 -19 -38 -64 0
-18 -23 -47 -48 0
19 23 -33 -80 0
19 38 39 69 0
-19 -51 -81 -85 0
20 53 -54 -72 0
-20 -21 69 -72 0
-21 -69 83 88 0
-21 -69 83 -88 0
22 -41 -53 -72 0
25 32 33 56 0
25 -33 -65 74 0
-31 57 58 -78 0
-35 36 -61 82 0
-35 65 -74 82 0
-38 41 -54 71 0
52 -63 -78 -84 0
-56 -59 61 62 0
66 -67 86 -90 0
-3 -23 67 89 0
-5 52 78 84 0
7 9 45 60 0
7 9 45 64 0
12 13 -31 -79 0
12 -19 79 -84 0
13 -73 78 79 0
-15 58 76 80 0
-17 -19 -44 -77 0
-18 -39 -48 -55 0
19 23 54 64 0
19 -51 -68 -91 0
-19 -27 -28 57 0
-19 -51 67 91 0
-21 70 -77 88 0
-25 -27 -33 -34 0
36 62 -63 82 0
-38 53 -54 71 0
42 45 -60 -83 0
45 -47 55 64 0
52 -61 -78 84 0
1 -42 -60 0
1 -42 83 0
-1 -24 -25 0
2 5 -62 0
2 -35 59 0
-2 -5 35 0
3 10 24 0
3 24 59 0
4 23 -85 0
4 -49 -51 0
5 -36 63 0
5 -52 -84 0
5 -56 -78 0
6 -36 -37 0
-6 65 74 0
-7 -8 -42 0
-7 -8 -45 0
-8 -9 -45 0
-8 -18 -69 0
-8 -39 -43 0
-8 46 48 0
-8 47 -64 0
-9 -40 43 0
10 -19 -34 0
10 39 -72 0
10 -57 -69 0
-10 -83 -88 0
11 -23 -28 0
11 27 34 0
12 -27 34 0
-12 -78 79 0
13 49 -68 0
13 49 91 0
-13 -49 90 0
14 -78 -79 0
-15 -30 73 0
16 -19 -56 0
16 50 -89 0
-16 -49 68 0
-16 -50 -51 0
-16 -50 68 0
17 19 60 0
-17 70 77 0
18 21 69 0
18 39 54 0
-18 -19 65 0
-18 -23 81 0
-19 24 -26 0
-19 36 37 0
-19 57 -86 0
-19 67 85 0
-19 86 90 0
-20 -22 70 0
21 -42 83 0
-22 -41 53 0
-22 -53 55 0
23 -33 34 0
23 39 48 0
23 -65 -75 0
-23 25 34 0
-23 25 36 0
-23 -40 -43 0
-23 -44 65 0
-23 -79 -86 0
25 36 76 0
-25 -36 -65 0
26 -28 31 0
29 30 33 0
-29 37 57 0
-31 57 -73 0
-31 57 -80 0
32 -36 -74 0
32 -56 -61 0
38 47 64 0
38 70 72 0
-39 -53 70 0
40 45 55 0
40 45 -83 0
40 -83 87 0
-40 -55 -87 0
-42 45 -55 0
-43 44 -71 0
-45 48 -55 0
46 -55 83 0
-46 47 64 0
-46 47 -64 0
49 67 68 0
-50 -66 -67 0
-54 -70 72 0
-54 -70 88 0
-66 86 -90 0
-66 -86 90 0
-68 90 -91 0
-74 -75 76 0
78 82 -84 0
1 27 0
1 -36 0
1 56 0
1 59 0
1 -69 0
1 70 0
1 83 0
1 -87 0
-1 -2 0
-1 -10 0
-1 19 0
-1 -31 0
-1 -70 0
-1 -90 0
2 6 0
2 -35 0
2 65 0
-2 37 0
-2 -65 0
3 -32 0
3 -33 0
3 42 0
3 -42 0
3 51 0
3 -51 0
3 56 0
3 68 0
3 89 0
-3 -16 0
-3 44 0
-3 -47 0
-3 79 0
-3 90 0
-3 91 0
4 16 0
4 25 0
4 -51 0
4 -61 0
4 63 0
4 -63 0
4 64 0
4 -67 0
4 -82 0
4 -84 0
-4 35 0
-4 -51 0
-4 70 0
-4 -78 0
5 48 0
5 70 0
5 -82 0
-5 -63 0
6 8 0
6 35 0
6 -62 0
6 -82 0
-6 -30 0
-6 52 0
-6 -74 0
7 42 0
-7 -19 0
-7 -42 0
-7 -45 0
8 42 0
8 -42 0
8 48 0
8 60 0
8 64 0
8 -88 0
8 -89 0
-8 53 0
-8 88 0
-8 -88 0
9 40 0
9 60 0
-9 -46 0
-9 65 0
10 11 0
10 57 0
10 -57 0
10 -69 0
10 -70 0
10 83 0
10 -85 0
-10 -11 0
-10 14 0
-10 -26 0
-10 27 0
-10 41 0
-10 59 0
11 -12 0
11 14 0
11 15 0
11 -30 0
11 -31 0
11 34 0
-11 -14 0
-11 -15 0
-11 30 0
-11 -58 0
-11 80 0
12 -30 0
-12 -13 0
-12 -29 0
-12 31 0
-12 35 0
-12 -57 0
-12 -58 0
-12 62 0
-12 73 0
-12 -79 0
13 -51 0
13 -56 0
13 -84 0
13 85 0
13 86 0
13 -89 0
13 91 0
-13 -67 0
-13 -85 0
-13 86 0
14 31 0
14 -58 0
14 73 0
-14 49 0
-14 57 0
-14 73 0
-14 76 0
-14 -78 0
15 31 0
15 -57 0
15 -58 0
16 51 0
-16 -19 0
-16 -23 0
-16 -49 0
17 18 0
17 23 0
17 40 0
17 44 0
-17 44 0
18 21 0
18 -69 0
-18 -41 0
-18 54 0
-18 -55 0
19 -30 0
19 -36 0
19 41 0
19 42 0
19 47 0
19 68 0
19 -71 0
19 74 0
19 -76 0
19 81 0
-19 -32 0
-19 -43 0
-19 46 0
-19 47 0
-19 -48 0
-19 52 0
-19 53 0
-19 -53 0
-19 -60 0
-19 81 0
-19 84 0
-19 89 0
-19 -89 0
20 21 0
20 41 0
20 54 0
20 -54 0
20 -69 0
20 -88 0
-20 72 0
-20 77 0
21 22 0
21 -42 0
21 70 0
21 -70 0
21 83 0
-21 -32 0
-21 -44 0
-21 -77 0
22 41 0
22 77 0
22 -77 0
22 88 0
-22 55 0
-22 -71 0
-22 -72 0
